\ This file has been generated by DOcplex
\ ENCODING=ISO-8859-1
\Problem name: dectiger problem

Minimize
 obj: V
Subject To
 c1: V + 121.678782646234 a1_0 + 138 a1_1 + 138 a1_2 >= 0
 c2: V + 138 a1_0 + 107 a1_1 + 192 a1_2 >= 0
 c3: V + 138 a1_0 + 192 a1_1 + 107 a1_2 >= 0
 c4: a1_0 + a1_1 + a1_2 = 1

Bounds
       a1_0 <= 1
       a1_1 <= 1
       a1_2 <= 1
       V Free
End
